c ---- [ banner ] ------------------------------------------------------------
c
c Kissat SAT Solver
c 
c Copyright (c) 2021-2023 Armin Biere University of Freiburg
c Copyright (c) 2019-2021 Armin Biere Johannes Kepler University Linz
c 
c Version 3.1.1 unknown
c gcc (Ubuntu 9.4.0-1ubuntu1~20.04.2) 9.4.0 -W -Wall -O3 -DNDEBUG
c Mon Feb 26 18:18:52 CET 2024 Linux OptiPlex-7080 5.15.0-88-generic x86_64
c
c ---- [ parsing ] -----------------------------------------------------------
c
c opened and reading DIMACS file:
c
c   /home/oliveras/SAT-comp-2023//fd1fbc1b090c14746a883b3a17259743-9vliw_bp_mc.shuffled.cnf
c
c parsed 'p cnf 20093 179492' header
c closing input after reading 3383601 bytes (3 MB)
c finished parsing after 0.08 seconds
c
c ---- [ options ] -----------------------------------------------------------
c
c --seed=1                         (different from default '0')
c
c ---- [ solving ] -----------------------------------------------------------
c
c  seconds switched conflicts     irredundant variables
c         MB reductions redundant        trail     remaining
c          level restarts     binary        glue
c
c *  0.08  7 0 0 0  0   0   0 159460 20021 0% 0 19144 95%
c {  0.08  7 0 0 0  0   0   0 159460 20021 0% 0 19144 95%
c -  0.29  8 303 0 1 177 1001 644 159472 20021 55% 8 19144 95%
c }  0.29  8 303 1 1 177 1001 644 159472 20021 55% 8 19144 95%
c [  0.29  8 0 1 1 177 1001 644 159472 20021 0% 0 19144 95%
c B  0.29  8 0 1 1 177 1001 644 159472 20021 0% 0 19144 95%
c -  0.37  8 607 1 2 177 2002 1162 159483 20021 66% 10 19144 95%
c W  0.39  9 607 1 2 177 2002 1162 159483 20020 66% 10 19144 95%
c b  0.47  9 390 1 2 178 2761 1897 159485 20020 61% 11 19142 95%
c u  0.48  9 390 1 2 178 2761 1896 159486 20020 61% 11 19142 95%
c v  0.49  9 390 1 2 178 2761 1896 159486 20020 61% 11 19142 95%
c w  0.52 10 390 1 2 178 2761 1896 159486 20020 61% 11 19142 95%
c t  0.57 10 390 1 2 178 2761 1896 159486 20020 61% 11 19140 95%
c b  0.57 10 390 1 2 178 2761 1896 159486 20020 61% 11 19131 95%
c -  0.62 10 306 1 3 179 3417 1452 159301 20020 60% 10 19131 95%
c I  0.66 10 240 1 3 179 4262 2265 159310 20020 58% 10 19131 95%
c ]  0.70 10 202 2 3 179 5092 3058 159322 20020 56% 10 19131 95%
c {  0.70 10 303 2 3 179 5092 3058 159322 20020 55% 8 19131 95%
c -  0.71 10 289 2 4 179 5150 1688 159323 20020 55% 8 19131 95%
c b  0.75 10 232 2 4 189 5521 2051 159328 20020 53% 8 19107 95%
c
c  seconds   switched conflicts        irredundant  variables
c         MB  reductions   redundant           trail     remaining
c           level restarts         binary         glue
c
c u  0.76 11 232 2 4 189 5521 2044 159335 20020 53% 8 19107 95%
c v  0.77 11 232 2 4 189 5521 2043 159336 20020 53% 8 19107 95%
c w  0.79 11 232 2 4 189 5521 2052 159336 20011 53% 8 19107 95%
c t  0.84 11 232 2 4 189 5521 2052 159335 20011 53% 8 19107 95%
c b  0.84 11 232 2 4 189 5521 2052 159335 20011 53% 8 19053 95%
c }  0.89 11 217 3 4 197 6092 2584 159369 20011 54% 7 19053 95%
c [  0.89 11 202 3 4 197 6092 2584 159369 20011 56% 10 19053 95%
c -  0.93 11 193 3 5 198 7151 1959 158225 20011 57% 11 19053 95%
c B  0.96 11 196 3 5 198 8034 2834 158225 20011 59% 12 19053 95%
c ]  1.02 11 208 4 5 199 9035 3827 158225 20011 60% 13 19053 95%
c {  1.02 11 217 4 5 199 9035 3827 158225 20011 54% 7 19053 95%
c i  1.06 11 213 4 5 250 9202 3988 158227 20011 54% 8 19052 95%
c -  1.10 11 217 4 6 302 9390 1981 158223 20011 54% 8 19052 95%
c d  1.40 11 190 4 6 666 11264 3793 158250 20010 54% 9 19051 95%
c b  1.42 11 190 4 6 666 11264 3793 158250 20010 54% 9 19049 95%
c u  1.43 11 190 4 6 666 11264 3784 158259 20010 54% 9 19049 95%
c v  1.44 11 190 4 6 666 11264 3771 158272 20010 54% 9 19049 95%
c w  1.47 11 190 4 6 666 11264 3775 158272 20006 54% 9 19049 95%
c t  1.53 11 190 4 6 666 11264 3775 158270 20006 54% 9 19049 95%
c }  1.57 11 198 5 6 694 11387 3891 158275 20006 55% 9 19049 95%
c
c  seconds   switched  conflicts        irredundant   variables
c         MB  reductions    redundant           trail      remaining
c           level restarts          binary          glue
c
c [  1.57 11 208 5 6 694 11387 3891 158275 20006 60% 13 19049 95%
c -  1.59 11 208 5 7 694 11840 2498 158262 20006 60% 13 19049 95%
c W  1.68 11 203 5 7 696 13564 4184 158267 20006 60% 14 19049 95%
c 2  1.70 11 201 5 7 696 13803 4417 158187 20006 60% 14 19049 95%
c s  1.77 11 201 5 7 696 13803 4417 158190 19890 60% 14 19049 95%
c e  2.05 16 201 5 7 696 13803 4417 128775 33783 60% 14 12669 63%
c 2  2.05 16 201 5 7 696 13803 4417 128762 33783 60% 14 12669 63%
c s  2.14 16 201 5 7 696 13803 4417 129226 30634 60% 14 12669 63%
c e  2.27 17 201 5 7 696 13803 4417 125668 31781 60% 14 11979 60%
c ^  2.27 17 201 5 7 696 13803 4417 125668 31781 60% 14 11979 60%
c -  2.31 12 196 5 8 696 14487 1834 125668 31781 61% 14 11979 60%
c -  2.40 12 174 5 9 698 17315 1917 125670 31781 62% 15 11979 60%
c u  2.52 13 155 5 9 700 20171 4695 125681 31781 62% 16 11979 60%
c v  2.53 13 155 5 9 700 20171 4695 125681 31781 62% 16 11979 60%
c w  2.56 14 155 5 9 700 20171 4703 125702 31752 62% 16 11979 60%
c t  2.60 16 155 5 9 700 20171 4703 125694 31752 62% 16 11979 60%
c b  2.61 16 155 5 9 700 20171 4703 125694 31752 62% 16 11975 60%
c -  2.62 16 154 5 10 700 20317 1961 125637 31752 62% 16 11975 60%
c O  2.64 16 151 5 10 700 21093 2732 125637 31752 62% 16 11975 60%
c -  2.75 16 143 5 11 700 23480 2056 125639 31752 61% 17 11975 60%
c
c  seconds   switched   conflicts        irredundant   variables
c         MB   reductions    redundant           trail      remaining
c           level  restarts          binary          glue
c
c -  2.87 16 135 5 12 703 26796 2332 125639 31752 61% 16 11975 60%
c 2  2.89 16 135 5 12 703 27308 2818 125613 31752 61% 16 11975 60%
c s  2.92 16 135 5 12 703 27308 2818 125691 30704 61% 16 11975 60%
c e  3.05 16 135 5 12 703 27308 2818 124074 32396 61% 16 11588 58%
c s  3.08 16 135 5 12 703 27308 2818 124148 31404 61% 16 11588 58%
c e  3.10 16 135 5 12 703 27308 2818 124121 31427 61% 16 11583 58%
c ^  3.10 16 135 5 12 703 27308 2818 124121 31427 61% 16 11583 58%
c -  3.24 16 126 5 13 705 30261 2542 124122 31427 60% 17 11583 58%
c ]  3.25 16 125 6 13 706 30587 2849 124122 31427 60% 16 11583 58%
c {  3.25 16 198 6 13 706 30587 2849 124122 31427 55% 9 11583 58%
c i  3.26 16 197 6 13 710 30599 2857 124125 31427 54% 9 11582 58%
c i  3.27 16 190 6 13 715 30804 3047 124135 31427 55% 9 11556 58%
c i  3.30 16 179 6 13 720 31393 3626 124141 31427 55% 9 11555 58%
c i  3.30 16 179 6 13 720 31397 3627 124142 31427 55% 9 11554 57%
c b  3.37 16 165 6 13 736 32190 4132 124721 30083 55% 9 11265 56%
c u  3.38 16 165 6 13 736 32190 4105 124736 30083 55% 9 11265 56%
c v  3.39 16 165 6 13 736 32190 4084 124736 30083 55% 9 11265 56%
c w  3.42 16 165 6 13 736 32190 4089 124821 29682 55% 9 11265 56%
c =  3.45 16 165 6 13 736 32190 4089 124925 29576 55% 9 11207 56%
c d  3.46 16 165 6 13 736 32190 4089 124282 28923 55% 9 10978 55%
c
c  seconds   switched   conflicts        irredundant  variables
c         MB   reductions    redundant           trail     remaining
c           level  restarts          binary         glue
c
c t  3.47 16 165 6 13 736 32190 4089 124160 28923 55% 9 10978 55%
c b  3.48 16 165 6 13 736 32190 4089 124160 28923 55% 9 10467 52%
c -  3.59 16 142 6 14 760 33867 3875 110893 28913 54% 8 10467 52%
c }  3.66 12 137 7 14 811 34656 4639 110907 28913 55% 8 10467 52%
c [  3.66 12 125 7 14 811 34656 4639 110907 28913 60% 16 10467 52%
c B  3.66 12 125 7 14 811 34656 4639 110907 28913 60% 16 10467 52%
c -  3.78 13 118 7 15 813 37608 4392 110909 28913 59% 17 10467 52%
c -  3.93 13 107 7 16 816 41480 3712 110909 28913 58% 17 10467 52%
c -  4.07 13 98 7 17 817 45481 3263 110909 28913 57% 17 10467 52%
c ]  4.09 13 97 8 17 817 45895 3662 110909 28913 57% 17 10467 52%
c {  4.09 13 137 8 17 817 45895 3662 110909 28913 55% 8 10467 52%
c d  4.27 14 141 8 17 1128 47596 5290 110945 28913 55% 9 10466 52%
c b  4.28 14 141 8 17 1128 47596 5290 110945 28913 55% 9 10465 52%
c u  4.30 14 141 8 17 1128 47596 5253 110982 28913 55% 9 10465 52%
c v  4.32 14 141 8 17 1128 47596 5245 110990 28913 55% 9 10465 52%
c w  4.35 14 141 8 17 1128 47596 5245 110990 28913 55% 9 10465 52%
c d  4.39 16 141 8 17 1128 47596 5245 110982 28912 55% 9 10464 52%
c t  4.40 16 141 8 17 1128 47596 5245 110950 28912 55% 9 10464 52%
c -  4.62 16 149 8 18 1491 49605 4054 110967 28912 55% 10 10464 52%
c }  4.85 16 161 9 18 1961 52056 6389 111027 28912 55% 11 10464 52%
c
c  seconds  switched    conflicts        irredundant   variables
c         MB  reductions     redundant           trail      remaining
c          level   restarts          binary          glue
c
c [  4.85 16 97 9 18 1961 52056 6389 111027 28912 57% 17 10464 52%
c W  4.86 18 97 9 18 1961 52056 6389 111027 28912 57% 17 10464 52%
c -  4.93 18 99 9 19 1962 53852 4771 111030 28912 58% 17 10464 52%
c 2  5.02 18 100 9 19 1964 56528 7399 110834 28912 58% 17 10463 52%
c s  5.10 18 100 9 19 1964 56528 7399 110903 27705 58% 17 10463 52%
c e  5.25 18 100 9 19 1964 56528 7399 109392 29082 58% 17 9953 50%
c 2  5.25 18 100 9 19 1964 56528 7399 109353 29082 58% 17 9953 50%
c s  5.33 18 100 9 19 1964 56528 7399 109389 28036 58% 17 9953 50%
c e  5.39 18 100 9 19 1964 56528 7399 108746 28527 58% 17 9810 49%
c ^  5.39 18 100 9 19 1964 56528 7399 108746 28527 58% 17 9810 49%
c -  5.45 13 97 9 20 1965 58211 3994 108746 28527 57% 17 9810 49%
c -  5.57 13 96 9 21 1967 62684 3704 108749 28527 58% 17 9810 49%
c b  5.69 14 93 9 21 1969 66263 7130 108752 28527 58% 17 9762 49%
c u  5.71 14 93 9 21 1969 66263 7115 108767 28527 58% 17 9762 49%
c v  5.73 14 93 9 21 1969 66263 7102 108780 28527 58% 17 9762 49%
c w  5.76 15 93 9 21 1969 66263 7104 108780 28488 58% 17 9762 49%
c =  5.81 16 93 9 21 1969 66263 7104 108784 28486 58% 17 9760 49%
c d  5.81 16 93 9 21 1969 66263 7104 108778 28486 58% 17 9760 49%
c t  5.83 16 93 9 21 1969 66263 7104 108753 28486 58% 17 9760 49%
c I  5.86 16 92 9 21 1970 66961 7762 108753 28486 58% 17 9760 49%
c
c  seconds  switched    conflicts        irredundant  variables
c         MB  reductions     redundant           trail     remaining
c          level   restarts          binary          glue
c
c -  5.87 16 92 9 22 1970 67266 3844 108576 28486 58% 17 9760 49%
c -  6.04 18 88 9 23 1973 71958 3928 108578 28486 58% 17 9760 49%
c -  6.19 18 83 9 24 1974 76754 3851 108579 28486 58% 17 9760 49%
c -  6.34 18 78 9 25 1975 81652 3706 108581 28486 58% 17 9760 49%
c ]  6.43 18 76 10 25 1975 84432 6449 108581 28486 57% 17 9760 49%
c {  6.43 18 161 10 25 1975 84432 6449 108581 28486 55% 11 9760 49%
c -  6.60 18 162 10 26 2239 86652 4294 108595 28486 56% 11 9760 49%
c d  6.78 14 166 10 26 2554 88487 6065 108615 28486 56% 11 9758 49%
c u  6.81 14 166 10 26 2554 88487 6059 108620 28486 56% 11 9757 49%
c v  6.83 14 166 10 26 2554 88487 5994 108685 28486 56% 11 9757 49%
c w  6.86 15 166 10 26 2554 88487 6003 108685 28477 56% 11 9757 49%
c =  6.92 15 166 10 26 2554 88487 6003 108693 28476 56% 11 9753 49%
c d  6.93 15 166 10 26 2554 88487 6003 108684 28476 56% 11 9753 49%
c t  6.94 15 166 10 26 2554 88487 6003 108682 28476 56% 11 9753 49%
c i  6.94 15 166 10 26 2554 88487 6003 108682 28476 56% 11 9753 49%
c -  7.12 16 162 10 27 2729 91753 5609 108687 28476 57% 11 9753 49%
c }  7.18 16 161 11 27 2791 93059 6889 108691 28476 57% 11 9753 49%
c [  7.18 16 76 11 27 2791 93059 6889 108691 28476 57% 17 9753 49%
c B  7.18 16 76 11 27 2791 93059 6889 108691 28476 57% 17 9753 49%
c -  7.32 16 74 11 28 2793 96949 5915 108691 28476 58% 17 9753 49%
c
c  seconds   switched    conflicts         irredundant  variables
c         MB   reductions      redundant           trail     remaining
c          level    restarts           binary          glue
c
c -  7.50 18 71 11 29 2797 102240 5218 108691 28476 57% 17 9753 49%
c 2  7.52 18 71 11 29 2797 102614 5585 108534 28476 58% 17 9753 49%
c s  7.59 18 71 11 29 2797 102614 5585 108549 27962 58% 17 9753 49%
c e  7.71 18 71 11 29 2797 102614 5585 107279 29843 58% 17 9488 47%
c 2  7.71 18 71 11 29 2797 102614 5585 107274 29843 58% 17 9488 47%
c s  7.79 18 71 11 29 2797 102614 5585 107343 28911 58% 17 9488 47%
c e  7.84 18 71 11 29 2797 102614 5585 107176 29135 58% 17 9455 47%
c ^  7.84 18 71 11 29 2797 102614 5585 107176 29135 58% 17 9455 47%
c -  7.99 18 68 11 30 2799 107625 4553 107176 29135 57% 17 9455 47%
c -  8.17 14 65 11 31 2803 113103 4422 107176 29135 57% 17 9455 47%
c W  8.21 15 65 11 31 2803 113970 5274 107176 29135 58% 17 9455 47%
c b  8.24 15 65 11 31 2804 114457 5756 107176 29135 58% 17 9449 47%
c u  8.25 15 65 11 31 2804 114457 5755 107177 29135 58% 17 9449 47%
c v  8.27 16 65 11 31 2804 114457 5721 107211 29135 58% 17 9449 47%
c w  8.30 16 65 11 31 2804 114457 5721 107211 29135 58% 17 9449 47%
c -  8.49 18 62 11 32 2805 118671 4337 107133 29135 57% 17 9449 47%
c ]  8.54 18 62 12 32 2805 119627 5286 107135 29135 58% 17 9449 47%
c {  8.54 18 161 12 32 2805 119627 5286 107135 29135 57% 11 9449 47%
c -  8.94 18 169 12 33 3566 124331 5376 107195 29135 57% 12 9449 47%
c -  9.32 18 180 12 34 4156 130075 6789 107248 29134 57% 12 9449 47%
c
c  seconds    switched    conflicts         irredundant  variables
c         MB    reductions      redundant           trail     remaining
c           level    restarts           binary          glue
c
c i  9.38 14 180 12 34 4220 130950 7636 107256 29134 57% 12 9227 46%
c }  9.39 14 180 13 34 4220 131110 7795 107257 29134 57% 12 9227 46%
c [  9.39 14 62 13 34 4220 131110 7795 107257 29134 58% 17 9227 46%
c -  9.60 15 61 13 35 4223 135905 7641 103741 28588 57% 16 9227 46%
c O  9.66 15 60 13 35 4225 138196 9866 103743 28588 57% 16 9227 46%
c i  9.76 15 60 13 35 4226 140859 12439 103751 28588 57% 16 9087 45%
c -  9.80 15 60 13 36 4226 141826 3920 99770 28587 57% 16 9087 45%
c d  9.87 15 60 13 36 4227 144222 6071 100141 25862 57% 15 9062 45%
c d  9.87 15 60 13 36 4227 144222 6070 100099 25830 57% 15 9041 45%
c b  9.88 15 60 13 36 4227 144222 6070 100099 25830 57% 15 8982 45%
c u  9.91 15 60 13 36 4227 144222 5890 100276 25830 57% 15 8982 45%
c v  9.94 15 60 13 36 4227 144222 5826 100339 25830 57% 15 8982 45%
c w  9.99 16 60 13 36 4227 144222 5899 100358 25675 57% 15 8982 45%
c = 10.07 18 60 13 36 4227 144222 5899 100408 25653 57% 15 8955 45%
c d 10.08 18 60 13 36 4227 144222 5897 100343 25653 57% 15 8955 45%
c t 10.09 18 60 13 36 4227 144222 5897 100335 25653 57% 15 8955 45%
c b 10.10 18 60 13 36 4227 144222 5897 100335 25653 57% 15 8928 44%
c - 10.21 18 64 13 37 4229 147827 4768 99168 25653 56% 16 8928 44%
c - 10.41 14 67 13 38 4233 153910 5137 99168 25653 56% 16 8928 44%
c - 10.64 14 69 13 39 4234 160075 5134 99169 25653 55% 18 8928 44%
c
c  seconds   switched    conflicts        irredundant  variables
c         MB   reductions      redundant          trail     remaining
c          level    restarts          binary          glue
c
c ] 10.80 14 70 14 39 4234 164062 9048 99169 25653 54% 18 8928 44%
c { 10.80 15 180 14 39 4234 164062 9048 99169 25653 57% 12 8928 44%
c - 11.00 16 182 14 40 4602 166319 5643 99198 25652 57% 12 8928 44%
c 2 11.08 16 183 14 40 4670 168024 7297 96124 25651 57% 12 8928 44%
c s 11.14 16 183 14 40 4670 168024 7297 97217 23209 57% 12 8928 44%
c e 11.29 18 183 14 40 4670 168024 7297 94129 27390 57% 12 8249 41%
c 2 11.29 18 183 14 40 4670 168024 7297 93486 27390 57% 12 8219 41%
c s 11.36 18 183 14 40 4670 168024 7297 93781 24183 57% 12 8219 41%
c e 11.44 18 183 14 40 4670 168024 7297 90751 25222 57% 12 7916 39%
c ^ 11.44 18 183 14 40 4670 168024 7297 90751 25222 57% 12 7916 39%
c - 11.64 14 178 14 41 4871 172649 6542 90734 25221 58% 12 7916 39%
c d 11.84 14 169 14 41 5043 177469 11216 90743 25221 57% 12 7914 39%
c b 11.86 15 169 14 41 5043 177469 11216 90743 25221 57% 12 7894 39%
c u 11.88 15 169 14 41 5043 177469 11107 90852 25221 57% 12 7894 39%
c v 11.91 15 169 14 41 5043 177469 11075 90884 25221 57% 12 7894 39%
c w 11.95 15 169 14 41 5043 177469 11075 90884 25216 57% 12 7894 39%
c = 12.03 16 169 14 41 5043 177469 11075 91059 25104 57% 12 7806 39%
c d 12.04 16 169 14 41 5043 177469 11068 90867 25104 57% 12 7806 39%
c t 12.06 16 169 14 41 5043 177469 11068 90203 25104 57% 12 7806 39%
c } 12.15 18 170 15 41 5222 178782 12320 90218 25104 57% 12 7806 39%
c
c  seconds   switched    conflicts         irredundant  variables
c         MB   reductions       redundant          trail     remaining
c          level    restarts           binary          glue
c
c [ 12.15 18 70 15 41 5222 178782 12320 90218 25104 54% 18 7806 39%
c B 12.15 18 70 15 41 5222 178782 12320 90218 25104 54% 18 7806 39%
c - 12.17 18 70 15 42 5222 179053 7557 89952 25104 54% 18 7806 39%
c - 12.37 14 67 15 43 5227 185534 7803 89955 25104 54% 17 7806 39%
c i 12.48 14 64 15 43 5228 189398 11432 89964 25104 53% 17 7028 35%
c - 12.56 15 66 15 44 5229 192093 2479 78152 16811 53% 17 7028 35%
c - 12.75 15 65 15 45 5234 198728 3417 78152 16811 53% 18 7028 35%
c - 12.93 15 63 15 46 5236 205437 3659 78160 16811 53% 19 7028 35%
c W 13.06 14 61 15 46 5236 210232 8342 78167 16811 53% 19 7028 35%
c - 13.13 14 61 15 47 5236 212220 3753 78173 16811 53% 20 7028 35%
c d 13.20 14 61 15 47 5238 214135 5587 77958 16697 53% 20 6924 34%
c b 13.21 14 61 15 47 5238 214135 5587 77958 16697 53% 20 6745 34%
c u 13.23 14 61 15 47 5238 214135 5364 78119 16697 53% 20 6708 33%
c v 13.25 14 61 15 47 5238 214135 5319 78148 16697 53% 20 6706 33%
c w 13.27 15 61 15 47 5238 214135 5339 78160 16267 53% 20 6706 33%
c = 13.33 15 61 15 47 5238 214135 5339 78168 16266 53% 20 6702 33%
c d 13.34 15 61 15 47 5238 214135 5336 78114 16260 53% 20 6680 33%
c t 13.35 15 61 15 47 5238 214135 5336 77724 16260 53% 20 6680 33%
c b 13.35 15 61 15 47 5238 214135 5336 77724 16260 53% 20 6679 33%
c i 13.35 15 61 15 47 5238 214135 5336 77724 16260 53% 20 6679 33%
c
c  seconds   switched    conflicts        irredundant  variables
c         MB   reductions      redundant          trail     remaining
c          level    restarts          binary          glue
c
c ] 13.38 15 61 16 47 5239 214689 5851 77724 16260 52% 20 6679 33%
c { 13.38 15 170 16 47 5239 214689 5851 77724 16260 57% 12 6679 33%
c i 13.42 15 172 16 47 5322 215727 6841 77744 16259 57% 12 6678 33%
c i 13.47 15 171 16 47 5391 217577 8607 77785 16250 57% 12 6677 33%
c i 13.48 15 171 16 47 5392 217623 8650 77786 16250 57% 12 6676 33%
c - 13.52 15 170 16 48 5452 219081 4556 74538 16248 57% 12 6676 33%
c i 13.57 13 168 16 48 5504 220494 5911 74552 16248 56% 12 6675 33%
c i 13.57 13 167 16 48 5513 220835 6237 74555 16248 56% 12 6668 33%
c - 13.79 14 164 16 49 5859 226009 6491 74515 16244 55% 12 6668 33%
c - 14.13 14 159 16 50 6548 233011 7882 74564 16238 54% 12 6668 33%
c } 14.13 14 159 17 50 6548 233026 7895 74564 16238 54% 12 6668 33%
c [ 14.13 14 61 17 50 6548 233026 7895 74564 16238 52% 20 6668 33%
c - 14.33 15 62 17 51 6553 240082 7327 74571 16238 52% 20 6668 33%
c I 14.48 15 61 17 51 6554 245584 12589 74573 16238 51% 20 6668 33%
c - 14.54 15 61 17 52 6556 247223 6010 74574 16238 51% 20 6668 33%
c 2 14.68 13 61 17 52 6560 252253 10894 72015 16238 51% 21 6667 33%
c s 14.72 13 61 17 52 6560 252253 10894 72757 12960 51% 21 6656 33%
c e 14.90 16 61 17 52 6560 252253 10894 67199 18611 51% 21 5317 26%
c 2 14.90 16 61 17 52 6560 252253 10894 65757 18611 51% 21 5317 26%
c s 14.94 16 61 17 52 6560 252253 10894 65984 14262 51% 21 5317 26%
c
c  seconds   switched    conflicts         irredundant  variables
c         MB   reductions       redundant          trail     remaining
c          level    restarts           binary          glue
c
c e 15.04 16 61 17 52 6560 252253 10894 62128 15663 51% 21 4908 24%
c ! 15.04 16 61 17 52 6560 252253 10894 62128 15663 51% 21 4908 24%
c b 15.08 13 60 17 52 6560 253360 9880 62145 15646 51% 21 4844 24%
c u 15.11 14 60 17 52 6560 253360 9743 62277 15646 51% 21 4788 24%
c v 15.14 14 60 17 52 6560 253360 9592 62377 15646 51% 21 4788 24%
c w 15.17 15 60 17 52 6560 253360 9757 62410 15112 51% 21 4771 24%
c = 15.27 15 60 17 52 6560 253360 9757 62426 15053 51% 21 4763 24%
c d 15.27 15 60 17 52 6560 253360 9738 62386 15053 51% 21 4755 24%
c t 15.28 15 60 17 52 6560 253360 9738 61966 15053 51% 21 4754 24%
c b 15.29 15 60 17 52 6560 253360 9738 61966 15053 51% 21 4750 24%
c i 15.29 15 60 17 52 6560 253360 9738 61966 15053 51% 21 4750 24%
c - 15.32 13 60 17 53 6561 254434 4560 60237 15046 51% 21 4750 24%
c - 15.49 14 59 17 54 6562 261714 4716 60237 15046 50% 21 4750 24%
c - 15.68 14 57 17 55 6565 269062 4740 60237 15046 50% 22 4750 24%
c ] 15.83 14 56 18 55 6568 274744 10225 60237 15046 49% 22 4750 24%
c { 15.83 14 159 18 55 6568 274744 10225 60237 15046 54% 12 4750 24%
c - 15.87 15 157 18 56 6579 276478 5390 60256 15046 54% 12 4750 24%
c i 15.96 14 152 18 56 6592 279605 8388 60315 15041 54% 12 4749 24%
c - 16.10 14 144 18 57 6601 283961 7660 60326 15041 54% 12 4749 24%
c i 16.23 14 136 18 57 6607 287916 11475 60347 15041 52% 11 4748 24%
c
c  seconds    switched    conflicts         irredundant  variables
c         MB    reductions       redundant          trail     remaining
c           level    restarts           binary          glue
c
c - 16.34 14 130 18 58 6609 291512 10096 60338 15041 51% 11 4748 24%
c i 16.36 15 128 18 58 6609 292304 10846 60347 15041 51% 11 4563 23%
c i 16.37 15 128 18 58 6612 292751 11256 60367 15038 51% 11 4562 23%
c i 16.46 15 127 18 58 6872 294532 12926 60421 15037 50% 11 4550 23%
c d 16.49 15 126 18 58 6966 295032 4871 61438 11036 50% 11 4536 23%
c d 16.50 15 126 18 58 6966 295032 4844 61165 10975 50% 11 4434 22%
c u 16.51 13 126 18 58 6966 295032 4736 61273 10975 50% 11 4434 22%
c v 16.55 13 126 18 58 6966 295032 4609 61399 10975 50% 11 4433 22%
c w 16.58 14 126 18 58 6966 295032 4989 61507 10401 50% 11 4433 22%
c = 16.64 14 126 18 58 6966 295032 4989 61507 10401 50% 11 4430 22%
c d 16.64 14 126 18 58 6966 295032 4958 61472 10347 50% 11 4416 22%
c t 16.65 14 126 18 58 6966 295032 4958 60175 10347 50% 11 4416 22%
c b 16.66 14 126 18 58 6966 295032 4958 60175 10347 50% 11 4415 22%
c i 16.66 14 126 18 58 6966 295032 4958 60175 10347 50% 11 4415 22%
c i 16.74 14 124 18 58 7320 296488 6328 60211 10346 50% 11 4414 22%
c } 16.77 14 123 19 58 7475 297089 6917 60217 10346 50% 11 4414 22%
c [ 16.77 14 56 19 58 7475 297089 6917 60217 10346 49% 22 4414 22%
c B 16.77 14 56 19 58 7475 297089 6917 60217 10346 49% 22 4414 22%
c - 16.83 14 56 19 59 7476 299127 4406 57170 10346 49% 22 4414 22%
c - 17.00 13 53 19 60 7481 306809 4998 57171 10346 48% 22 4414 22%
c
c  seconds   switched    conflicts        irredundant  variables
c         MB   reductions      redundant          trail     remaining
c          level    restarts          binary          glue
c
c - 17.17 14 51 19 61 7485 314555 4620 57173 10346 47% 22 4414 22%
c - 17.34 14 49 19 62 7489 322365 4546 57174 10346 46% 21 4414 22%
c - 17.51 14 47 19 63 7489 330239 4514 57174 10346 45% 21 4414 22%
c - 17.69 14 45 19 64 7495 338176 4542 57174 10346 45% 21 4414 22%
c d 17.73 14 45 19 64 7496 339837 6153 57159 10339 44% 21 4407 22%
c u 17.76 13 45 19 64 7496 339837 6106 57206 10339 44% 21 4407 22%
c v 17.78 13 45 19 64 7496 339837 6092 57220 10339 44% 21 4407 22%
c w 17.80 14 45 19 64 7496 339837 6295 57344 10012 44% 21 4407 22%
c = 17.87 14 45 19 64 7496 339837 6295 57446 9925 44% 21 4356 22%
c d 17.87 14 45 19 64 7496 339837 6212 57319 9925 44% 21 4355 22%
c t 17.88 14 45 19 64 7496 339837 6212 56980 9925 44% 21 4355 22%
c W 17.91 14 44 19 64 7496 340802 7154 56980 9925 44% 21 4355 22%
c ] 18.02 14 44 20 64 7498 345272 11387 56982 9925 44% 21 4355 22%
c { 18.02 14 123 20 64 7498 345272 11387 56982 9925 50% 11 4355 22%
c i 18.03 14 123 20 64 7528 345517 11610 56993 9925 50% 11 4354 22%
c - 18.06 13 123 20 65 7634 346179 5041 56956 9925 50% 11 4354 22%
c i 18.08 13 122 20 65 7694 347123 5919 56969 9925 49% 11 4338 22%
c i 18.08 13 122 20 65 7694 347144 5935 56973 9925 49% 11 4337 22%
c i 18.12 13 122 20 65 7791 348407 7129 56993 9925 49% 11 4336 22%
c i 18.18 14 120 20 65 7840 350407 9012 57013 9925 48% 11 4335 22%
c
c  seconds    switched    conflicts       irredundant  variables
c         MB    reductions      redundant         trail     remaining
c           level    restarts          binary         glue
c
c i 18.19 14 120 20 65 7841 350709 9284 57019 9925 48% 11 4334 22%
c i 18.19 14 120 20 65 7841 350901 9458 57022 9925 48% 11 4333 22%
c i 18.19 14 120 20 65 7841 350905 9458 57023 9925 48% 11 4331 22%
c i 18.20 14 119 20 65 7841 351317 9832 57039 9925 48% 11 3858 19%
c i 18.20 14 119 20 65 7841 351318 9832 57039 9925 48% 11 3857 19%
c i 18.20 14 119 20 65 7841 351333 9841 57042 9925 48% 11 3692 18%
c i 18.20 14 119 20 65 7841 351335 9841 57043 9925 48% 11 3684 18%
c i 18.20 14 119 20 65 7841 351338 9843 57043 9925 48% 11 3682 18%
c i 18.20 14 119 20 65 7841 351339 9843 57043 9925 48% 11 3586 18%
c } 18.20 14 119 20 65 7841 351341 9843 57043 9925 48% 11 3440 17%
c 0 18.20 14 119 20 65 7841 351341 9843 57043 9925 48% 11 3440 17%
c
c ---- [ result ] ------------------------------------------------------------
c
s UNSATISFIABLE
c
c ---- [ profiling ] ---------------------------------------------------------
c
c          13.42   73.75 %  search
c           7.95   43.66 %  stable
c           5.48   30.09 %  focused
c           4.70   25.81 %  simplify
c           2.41   13.23 %  probe
c           2.22   12.19 %  eliminate
c           1.01    5.53 %  vivify
c           0.80    4.42 %  sweep
c           0.75    4.14 %  subsume
c           0.32    1.78 %  substitute
c           0.25    1.40 %  reduce
c           0.18    1.01 %  backbone
c           0.09    0.48 %  transitive
c           0.08    0.44 %  parse
c           0.07    0.39 %  walking
c           0.01    0.03 %  warmup
c =============================================
c          18.20  100.00 %  total
c
c ---- [ statistics ] --------------------------------------------------------
c
c chronological:                         5965                2 %  conflicts
c conflicts:                           351341            19300.87 per second
c decisions:                          3281270                9.34 per conflict
c eliminated:                           11123               55 %  variables
c jumped_reasons:                    16653963               15 %  propagations
c propagations:                     110057142          6045973    per second
c queue_decisions:                    1738510               53 %  decision
c random_decisions:                    279127                9 %  decision
c random_sequences:                        98             3585    interval
c reductions:                              65             5405    interval
c rephased:                                17            20667    interval
c restarts:                              7841               44.81 interval
c score_decisions:                    1263633               39 %  decision
c strengthened:                         51067                1 %  checks
c substituted:                            786                4 %  variables
c subsumed:                             18975                0 %  checks
c switched:                                20            17567    interval
c vivified:                              7740               25 %  checks
c vivify_checks:                        31556             2104    per vivify
c vivify_units:                             8                0 %  variables
c walk_improved:                            6              100 %  walks
c walks:                                    6            58557    interval
c
c ---- [ resources ] ---------------------------------------------------------
c
c maximum-resident-set-size:         19255296 bytes         18 MB
c process-time:                            18s              18.20 seconds
c
c ---- [ shutting down ] -----------------------------------------------------
c
c exit 20
